55709
16, 22, 10, 53, 49, 26, 55, 28, 6, 3, 43, 40, 51, 13, 41, 32, 24, 50, 20, 7, 37, 5, 35, 38, 8, 44, 19, 48, 17, 23, 21, 29, 39, 46, 36, 15, 2, 14, 9, 34, 54, 47, 30, 4, 18, 12, 42, 33, 1, 27, 31, 25, 11, 45, 52
